(set-logic HORN)
(set-info :source |
    Benchmark: C_VC
    Output by Princess (http://www.philipp.ruemmer.org/princess.shtml)
|)
(set-info :status unsat)
(declare-heap Heap Addr HeapObject
 defObj
 ((HeapObject 0) (TSLL 0) (TBCK 0)) (
  (
   (O_Int (getInt Int))
   (O_UInt (getUInt Int))
   (O_Addr (getAddr Addr))
   (O_AddrRange (getAddrRange AddrRange))
   (O_TSLL (getTSLL TSLL))
   (O_TBCK (getTBCK TBCK))
   (defObj)
  )
  (
   (TSLL (|TSLL::next| Addr) (|TSLL::data| Int))
  )
  (
   (TBCK (|TBCK::next| Addr) (|TBCK::list| Addr) (|TBCK::data| Int))
  )
))
(declare-fun inv_main1004_2 (Heap) Bool)
(declare-fun inv_main1020_2 (Heap Addr Addr Addr Addr) Bool)
(declare-fun inv_main1034_12 (Heap Addr Addr Addr Addr) Bool)
(declare-fun inv_main1035_12 (Heap Addr Addr Addr Addr) Bool)
(declare-fun inv_main1038_12 (Heap Addr Addr Addr Addr) Bool)
(declare-fun inv_main1061_13 (Heap Addr Addr Addr Addr) Bool)
(declare-fun inv_main1064_12 (Heap Addr Addr Addr Addr) Bool)
(declare-fun inv_main_15 (Heap Addr Addr Addr Addr) Bool)
(declare-fun inv_main_20 (Heap Addr Addr Addr Addr) Bool)
(declare-fun inv_main_28 (Heap Addr Addr Addr Addr) Bool)
(declare-fun inv_main_35 (Heap Addr Addr Addr Addr) Bool)
(assert (forall ((var0 Heap)) (or (not (= var0 emptyHeap)) (inv_main1004_2 var0))))
(assert (forall ((var0 Addr) (var1 Addr) (var2 Addr) (var3 Heap) (var4 Int) (var5 Addr) (var6 Addr) (var7 Addr) (var8 Addr) (var9 Addr) (var10 Heap)) (or (not (and (inv_main_20 var10 var9 var8 var7 var6) (and (= var5 nullAddr) (and (= var4 (|TSLL::data| (getTSLL (read var3 var2)))) (and (and (and (and (and (= var3 var10) (= var1 var9)) (= var5 var8)) (= var2 var7)) (= var0 var6)) (= var4 (|TBCK::data| (getTBCK (read var10 var8))))))))) (inv_main1038_12 var3 var1 var5 var2 var0))))
(assert (forall ((var0 Addr) (var1 Addr) (var2 Addr) (var3 Addr) (var4 Heap)) (or (not (and (inv_main_15 var4 var3 var2 var1 var0) (and (= var1 nullAddr) (not (= var3 nullAddr))))) (inv_main1035_12 var4 var3 var3 var1 var0))))
(assert (forall ((var0 Addr) (var1 Addr) (var2 Addr) (var3 Addr) (var4 Heap)) (or (not (and (inv_main_35 var4 var3 var2 var1 var0) (and (not (= var1 nullAddr)) (= var1 nullAddr)))) (inv_main1064_12 var4 var3 var2 var1 var0))))
(assert (forall ((var0 Int) (var1 Addr) (var2 Addr) (var3 Addr) (var4 Addr) (var5 Heap) (var6 Addr) (var7 Addr) (var8 Addr) (var9 Addr) (var10 Addr) (var11 Addr) (var12 Addr) (var13 Addr) (var14 Addr) (var15 Addr) (var16 Heap) (var17 Heap) (var18 Addr) (var19 Addr) (var20 Addr) (var21 Addr) (var22 Heap)) (or (not (and (inv_main_20 var22 var21 var20 var19 var18) (and (and (and (and (and (and (= var17 var16) (= var15 var14)) (= var13 var12)) (= var11 var10)) (= var9 var8)) (= var7 (|TBCK::list| (getTBCK (read var16 var12))))) (and (and (not (= var6 nullAddr)) (and (and (and (and (and (= var16 var5) (= var14 var4)) (= var12 var3)) (= var10 var2)) (= var8 var1)) (= var6 (|TBCK::list| (getTBCK (read var5 var3)))))) (and (not (= var3 nullAddr)) (and (= var0 (|TSLL::data| (getTSLL (read var5 var2)))) (and (and (and (and (and (= var5 var22) (= var4 var21)) (= var3 var20)) (= var2 var19)) (= var1 var18)) (= var0 (|TBCK::data| (getTBCK (read var22 var20))))))))))) (inv_main_28 var17 var15 var13 var11 var7))))
(assert (forall ((var0 Addr) (var1 Addr) (var2 Addr) (var3 Addr) (var4 Addr) (var5 Addr) (var6 Addr) (var7 Addr) (var8 Addr) (var9 Addr) (var10 Heap) (var11 Heap) (var12 Addr) (var13 Addr) (var14 Addr) (var15 Addr) (var16 Heap)) (or (not (and (inv_main_28 var16 var15 var14 var13 var12) (and (and (and (and (and (and (= var11 var10) (= var9 var8)) (= var7 var6)) (= var5 var4)) (= var3 var2)) (= var1 (|TSLL::next| (getTSLL (read var10 var2))))) (and (not (= var0 nullAddr)) (and (and (and (and (and (= var10 var16) (= var8 var15)) (= var6 var14)) (= var4 var13)) (= var2 var12)) (= var0 (|TSLL::next| (getTSLL (read var16 var12))))))))) (inv_main_28 var11 var9 var7 var5 var1))))
(assert (forall ((var0 Heap) (var1 Addr) (var2 Addr) (var3 Addr) (var4 Addr) (var5 Heap) (var6 Int) (var7 Addr) (var8 Addr) (var9 Addr) (var10 Addr) (var11 Addr) (var12 TSLL) (var13 Heap) (var14 Int) (var15 Addr) (var16 Addr) (var17 Addr) (var18 Addr) (var19 Heap)) (or (not (and (inv_main1020_2 var19 var18 var17 var16 var15) (and (and (not (= var14 0)) (and (and (and (and (and (and (and (= var13 (newHeap (alloc var19 (O_TSLL var12)))) (= var11 var18)) (= var10 var17)) (= var9 var16)) (= var8 var15)) (= var7 (newAddr (alloc var19 (O_TSLL var12))))) (not (= var6 0))) (and (and (and (and (= var5 (write var13 var7 (O_TSLL (TSLL nullAddr (|TSLL::data| (getTSLL (read var13 var7))))))) (= var4 var11)) (= var3 var10)) (= var2 var7)) (= var1 var8)))) (= var0 (write var5 var2 (O_TSLL (TSLL (|TSLL::next| (getTSLL (read var5 var2))) 0))))))) (inv_main_15 var0 var4 var3 var2 var1))))
(assert (forall ((var0 Heap) (var1 Addr) (var2 Addr) (var3 Addr) (var4 Addr) (var5 Heap) (var6 Int) (var7 Addr) (var8 Addr) (var9 Addr) (var10 Addr) (var11 Addr) (var12 TSLL) (var13 Heap) (var14 Int) (var15 Int) (var16 Addr) (var17 Addr) (var18 Addr) (var19 Addr) (var20 Heap)) (or (not (and (inv_main1020_2 var20 var19 var18 var17 var16) (and (and (not (= var15 0)) (and (= var14 0) (and (and (and (and (and (and (and (= var13 (newHeap (alloc var20 (O_TSLL var12)))) (= var11 var19)) (= var10 var18)) (= var9 var17)) (= var8 var16)) (= var7 (newAddr (alloc var20 (O_TSLL var12))))) (not (= var6 0))) (and (and (and (and (= var5 (write var13 var7 (O_TSLL (TSLL nullAddr (|TSLL::data| (getTSLL (read var13 var7))))))) (= var4 var11)) (= var3 var10)) (= var2 var7)) (= var1 var8))))) (= var0 (write var5 var2 (O_TSLL (TSLL (|TSLL::next| (getTSLL (read var5 var2))) 1))))))) (inv_main_15 var0 var4 var3 var2 var1))))
(assert (forall ((var0 Heap) (var1 Addr) (var2 Addr) (var3 Addr) (var4 Addr) (var5 Heap) (var6 Int) (var7 Addr) (var8 Addr) (var9 Addr) (var10 Addr) (var11 Addr) (var12 TSLL) (var13 Heap) (var14 Int) (var15 Int) (var16 Addr) (var17 Addr) (var18 Addr) (var19 Addr) (var20 Heap)) (or (not (and (inv_main1020_2 var20 var19 var18 var17 var16) (and (and (= var15 0) (and (= var14 0) (and (and (and (and (and (and (and (= var13 (newHeap (alloc var20 (O_TSLL var12)))) (= var11 var19)) (= var10 var18)) (= var9 var17)) (= var8 var16)) (= var7 (newAddr (alloc var20 (O_TSLL var12))))) (not (= var6 0))) (and (and (and (and (= var5 (write var13 var7 (O_TSLL (TSLL nullAddr (|TSLL::data| (getTSLL (read var13 var7))))))) (= var4 var11)) (= var3 var10)) (= var2 var7)) (= var1 var8))))) (= var0 (write var5 var2 (O_TSLL (TSLL (|TSLL::next| (getTSLL (read var5 var2))) 2))))))) (inv_main_15 var0 var4 var3 var2 var1))))
(assert (forall ((var0 Addr) (var1 Addr) (var2 Addr) (var3 Addr) (var4 Heap)) (or (not (and (inv_main_15 var4 var3 var2 var1 var0) (and (not (= var1 nullAddr)) (not (= var3 nullAddr))))) (inv_main_20 var4 var3 var3 var1 var0))))
(assert (forall ((var0 Int) (var1 Addr) (var2 Addr) (var3 Addr) (var4 Addr) (var5 Addr) (var6 Addr) (var7 Addr) (var8 Addr) (var9 Addr) (var10 Heap) (var11 Heap) (var12 Addr) (var13 Addr) (var14 Addr) (var15 Addr) (var16 Heap)) (or (not (and (inv_main_20 var16 var15 var14 var13 var12) (and (and (and (and (and (and (= var11 var10) (= var9 var8)) (= var7 var6)) (= var5 var4)) (= var3 var2)) (= var1 (|TBCK::next| (getTBCK (read var10 var6))))) (and (not (= var0 (|TSLL::data| (getTSLL (read var10 var4))))) (and (and (and (and (and (= var10 var16) (= var8 var15)) (= var6 var14)) (= var4 var13)) (= var2 var12)) (= var0 (|TBCK::data| (getTBCK (read var16 var14))))))))) (inv_main_20 var11 var9 var1 var5 var3))))
(assert (forall ((var0 Addr) (var1 Addr) (var2 Addr) (var3 Addr) (var4 Addr) (var5 Addr) (var6 Addr) (var7 Addr) (var8 Heap) (var9 Addr) (var10 Heap) (var11 Int) (var12 Addr) (var13 Addr) (var14 Addr) (var15 Addr) (var16 Heap)) (or (not (and (inv_main_35 var16 var15 var14 var13 var12) (and (and (= var11 (|TBCK::data| (getTBCK (read var10 var9)))) (and (and (and (and (and (= var10 var8) (= var7 var6)) (= var9 var5)) (= var4 var3)) (= var2 var1)) (= var11 (|TSLL::data| (getTSLL (read var8 var1)))))) (and (and (and (and (and (and (= var8 var16) (= var6 var15)) (= var5 var14)) (= var0 var13)) (= var1 var13)) (= var3 (|TSLL::next| (getTSLL (read var16 var13))))) (not (= var13 nullAddr)))))) (inv_main1061_13 var10 var7 var9 var4 var2))))
(assert (forall ((var0 Heap) (var1 Int) (var2 Addr) (var3 Addr) (var4 Addr) (var5 Addr) (var6 Addr) (var7 Addr) (var8 Addr) (var9 Addr) (var10 Heap) (var11 Heap) (var12 Addr) (var13 Addr) (var14 Addr) (var15 Addr) (var16 Addr) (var17 Heap)) (or (not (and (inv_main_20 var17 var16 var15 var14 var13) (and (and (and (= var12 nullAddr) (and (and (and (and (and (= var11 var10) (= var9 var8)) (= var7 var6)) (= var5 var4)) (= var3 var2)) (= var12 (|TBCK::list| (getTBCK (read var10 var6)))))) (and (not (= var6 nullAddr)) (and (= var1 (|TSLL::data| (getTSLL (read var10 var4)))) (and (and (and (and (and (= var10 var17) (= var8 var16)) (= var6 var15)) (= var4 var14)) (= var2 var13)) (= var1 (|TBCK::data| (getTBCK (read var17 var15)))))))) (= var0 (write var11 var7 (O_TBCK (TBCK (|TBCK::next| (getTBCK (read var11 var7))) var5 (|TBCK::data| (getTBCK (read var11 var7)))))))))) (inv_main1020_2 var0 var9 var7 var5 var3))))
(assert (forall ((var0 Heap) (var1 Addr) (var2 Addr) (var3 Addr) (var4 Addr) (var5 Heap) (var6 Addr) (var7 Addr) (var8 Addr) (var9 Addr) (var10 Addr) (var11 Heap)) (or (not (and (inv_main_28 var11 var10 var9 var8 var7) (and (and (= var6 nullAddr) (and (and (and (and (and (= var5 var11) (= var4 var10)) (= var3 var9)) (= var2 var8)) (= var1 var7)) (= var6 (|TSLL::next| (getTSLL (read var11 var7)))))) (= var0 (write var5 var1 (O_TSLL (TSLL var2 (|TSLL::data| (getTSLL (read var5 var1)))))))))) (inv_main1020_2 var0 var4 var3 var2 var1))))
(assert (forall ((var0 Addr) (var1 Addr) (var2 Heap) (var3 Addr) (var4 TBCK) (var5 Heap) (var6 Addr) (var7 Addr) (var8 Addr) (var9 TBCK) (var10 Heap) (var11 Heap) (var12 Addr) (var13 Addr) (var14 Heap) (var15 Addr) (var16 Addr) (var17 Heap) (var18 Addr) (var19 Addr) (var20 Heap) (var21 Addr) (var22 Addr) (var23 Addr) (var24 Heap) (var25 Heap) (var26 Addr) (var27 Addr) (var28 Addr) (var29 Addr) (var30 Addr) (var31 TBCK) (var32 Heap) (var33 Heap) (var34 Addr) (var35 Addr) (var36 Addr) (var37 Addr) (var38 Addr) (var39 Heap) (var40 Heap) (var41 Addr) (var42 Addr) (var43 Addr) (var44 Addr) (var45 Addr) (var46 Heap) (var47 Heap) (var48 Heap)) (or (not (and (inv_main1004_2 var48) (and (and (and (and (and (and (and (and (= var47 var46) (= var45 var44)) (= var43 var42)) (= var41 nullAddr)) (and (and (and (and (and (and (and (= var40 var39) (= var38 var37)) (= var36 var35)) (= var34 (|TBCK::next| (getTBCK (read var39 var35))))) (and (and (and (and (and (= var33 (newHeap (alloc var32 (O_TBCK var31)))) (= var30 var29)) (= var28 var27)) (= var26 (newAddr (alloc var32 (O_TBCK var31))))) (and (and (and (= var25 var24) (= var23 var22)) (= var21 (|TBCK::next| (getTBCK (read var24 var22))))) (and (and (= var20 (write var25 var21 (O_TBCK (TBCK (|TBCK::next| (getTBCK (read var25 var21))) (|TBCK::list| (getTBCK (read var25 var21))) 1)))) (= var19 var23)) (= var18 var21)))) (and (and (= var32 (write var20 var18 (O_TBCK (TBCK (|TBCK::next| (getTBCK (read var20 var18))) nullAddr (|TBCK::data| (getTBCK (read var20 var18))))))) (= var29 var19)) (= var27 var18)))) (and (and (= var39 (write var33 var28 (O_TBCK (TBCK var26 (|TBCK::list| (getTBCK (read var33 var28))) (|TBCK::data| (getTBCK (read var33 var28))))))) (= var37 var30)) (= var35 var28))) (and (and (= var17 (write var40 var34 (O_TBCK (TBCK (|TBCK::next| (getTBCK (read var40 var34))) (|TBCK::list| (getTBCK (read var40 var34))) 2)))) (= var16 var38)) (= var15 var34))) (and (and (= var14 (write var17 var15 (O_TBCK (TBCK (|TBCK::next| (getTBCK (read var17 var15))) nullAddr (|TBCK::data| (getTBCK (read var17 var15))))))) (= var13 var16)) (= var12 var15)))) (and (and (= var46 (write var14 var12 (O_TBCK (TBCK nullAddr (|TBCK::list| (getTBCK (read var14 var12))) (|TBCK::data| (getTBCK (read var14 var12))))))) (= var44 var13)) (= var42 var12))) (and (and (and (and (= var11 (newHeap (alloc var10 (O_TBCK var9)))) (= var8 var7)) (= var6 (newAddr (alloc var10 (O_TBCK var9))))) (and (and (= var5 (newHeap (alloc var48 (O_TBCK var4)))) (= var3 (newAddr (alloc var48 (O_TBCK var4))))) (and (= var2 (write var5 var3 (O_TBCK (TBCK (|TBCK::next| (getTBCK (read var5 var3))) (|TBCK::list| (getTBCK (read var5 var3))) 0)))) (= var1 var3)))) (and (= var10 (write var2 var1 (O_TBCK (TBCK (|TBCK::next| (getTBCK (read var2 var1))) nullAddr (|TBCK::data| (getTBCK (read var2 var1))))))) (= var7 var1)))) (and (= var24 (write var11 var8 (O_TBCK (TBCK var6 (|TBCK::list| (getTBCK (read var11 var8))) (|TBCK::data| (getTBCK (read var11 var8))))))) (= var22 var8))) (= var0 nullAddr)))) (inv_main1020_2 var47 var45 var43 var41 var0))))
(assert (forall ((var0 Addr) (var1 Addr) (var2 Addr) (var3 Addr) (var4 Heap)) (or (not (and (inv_main_15 var4 var3 var2 var1 var0) (= var3 nullAddr))) (inv_main1034_12 var4 var3 var3 var1 var0))))
(assert (forall ((var0 Heap) (var1 Addr) (var2 Addr) (var3 Addr) (var4 Addr) (var5 Addr) (var6 Addr) (var7 Addr) (var8 Addr) (var9 Heap) (var10 Addr) (var11 Heap) (var12 Int) (var13 Addr) (var14 Addr) (var15 Addr) (var16 Addr) (var17 Heap)) (or (not (and (inv_main_35 var17 var16 var15 var14 var13) (and (and (and (not (= var12 (|TBCK::data| (getTBCK (read var11 var10))))) (and (and (and (and (and (= var11 var9) (= var8 var7)) (= var10 var6)) (= var5 var4)) (= var3 var2)) (= var12 (|TSLL::data| (getTSLL (read var9 var2)))))) (and (and (and (and (and (and (= var9 var17) (= var7 var16)) (= var6 var15)) (= var1 var14)) (= var2 var14)) (= var4 (|TSLL::next| (getTSLL (read var17 var14))))) (not (= var14 nullAddr)))) (= var0 (write var11 var3 defObj))))) (inv_main_35 var0 var8 var10 var5 var3))))
(assert (forall ((var0 Heap) (var1 Int) (var2 Addr) (var3 Addr) (var4 Addr) (var5 Addr) (var6 Addr) (var7 Heap) (var8 Addr) (var9 Addr) (var10 Addr) (var11 Addr) (var12 Heap)) (or (not (and (inv_main1020_2 var12 var11 var10 var9 var8) (and (and (and (and (and (and (and (and (= var7 var12) (= var6 var11)) (= var5 var11)) (= var4 var9)) (= var3 var8)) (= var2 (|TBCK::list| (getTBCK (read var12 var11))))) (not (= var11 nullAddr))) (= var1 0)) (= var0 (write var7 var5 (O_TBCK (TBCK (|TBCK::next| (getTBCK (read var7 var5))) nullAddr (|TBCK::data| (getTBCK (read var7 var5)))))))))) (inv_main_35 var0 var6 var5 var2 var3))))
(assert (forall ((var0 Heap) (var1 Addr) (var2 Addr) (var3 Addr) (var4 Addr) (var5 Heap) (var6 Addr) (var7 Addr) (var8 Addr) (var9 Addr) (var10 Addr) (var11 Heap) (var12 Addr) (var13 Addr) (var14 Addr) (var15 Addr) (var16 Addr) (var17 Addr) (var18 Addr) (var19 Addr) (var20 Addr) (var21 Heap) (var22 Heap) (var23 Addr) (var24 Addr) (var25 Addr) (var26 Addr) (var27 Heap)) (or (not (and (inv_main_35 var27 var26 var25 var24 var23) (and (and (and (and (and (and (and (and (and (= var22 var21) (= var20 var19)) (= var18 var17)) (= var16 var15)) (= var14 var13)) (= var12 (|TBCK::list| (getTBCK (read var21 var17))))) (not (= var17 nullAddr))) (and (and (and (and (and (and (and (= var11 var27) (= var10 var25)) (= var9 var25)) (= var8 var24)) (= var7 var23)) (= var6 (|TBCK::next| (getTBCK (read var27 var25))))) (and (= var24 nullAddr) (= var24 nullAddr))) (and (and (and (and (= var5 (write var11 var10 defObj)) (= var4 var10)) (= var3 var6)) (= var2 var8)) (= var1 var7)))) (and (and (and (and (= var21 var5) (= var19 nullAddr)) (= var17 var3)) (= var15 var2)) (= var13 var1))) (= var0 (write var22 var18 (O_TBCK (TBCK (|TBCK::next| (getTBCK (read var22 var18))) nullAddr (|TBCK::data| (getTBCK (read var22 var18)))))))))) (inv_main_35 var0 var20 var18 var12 var14))))
(assert (forall ((var0 Addr) (var1 Addr) (var2 Addr) (var3 Addr) (var4 Heap)) (not (inv_main1034_12 var4 var3 var2 var1 var0))))
(assert (forall ((var0 Addr) (var1 Addr) (var2 Addr) (var3 Addr) (var4 Heap)) (not (inv_main1035_12 var4 var3 var2 var1 var0))))
(assert (forall ((var0 Addr) (var1 Addr) (var2 Addr) (var3 Addr) (var4 Heap)) (not (inv_main1038_12 var4 var3 var2 var1 var0))))
(assert (forall ((var0 Addr) (var1 Addr) (var2 Addr) (var3 Addr) (var4 Heap)) (not (inv_main1061_13 var4 var3 var2 var1 var0))))
(assert (forall ((var0 Addr) (var1 Addr) (var2 Addr) (var3 Addr) (var4 Heap)) (not (inv_main1064_12 var4 var3 var2 var1 var0))))
(check-sat)
